86 86
62 25
47 38
65 31
49 9
72 40
36 3
67 35
80 31
63 33
11 16
68 41
37 43
42 7
15 33
33 8
34 2
56 7
20 13
85 16
64 24
10 21
76 26
8 28
7 12
83 18
16 29
13 1
27 41
79 6
82 15
3 39
1 15
28 42
44 3
22 5
24 4
17 6
60 20
30 28
74 21
14 26
73 40
38 19
54 30
66 34
29 30
48 9
23 5
53 14
78 32
12 1
81 22
46 35
18 36
9 27
59 24
84 42
86 23
6 23
32 36
77 27
69 32
21 11
43 17
51 22
58 34
55 11
57 12
71 20
40 39
45 25
39 4
70 18
41 10
4 37
61 8
52 13
31 10
50 43
35 2
25 19
19 38
5 37
75 17
26 14
2 29
